(set-logic ALL)
(declare-fun i1 () Int)
(declare-fun it176 () Int)
(declare-fun it177 () Int)
(declare-fun i2 () Int)
(declare-fun it178 () Int)
(declare-fun i3 () Int)
(declare-fun it179 () Int)
(declare-fun i4 () Int)
(declare-fun it180 () Int)
(declare-fun i5 () Int)
(declare-fun it181 () Int)
(declare-fun i6 () Int)
(declare-fun i7 () Int)
(declare-fun it182 () Int)
(declare-fun it415 () Int)
(declare-fun it416 () Int)
(declare-fun it417 () Int)
(declare-fun it418 () Int)
(declare-fun it419 () Int)
(declare-fun it420 () Int)
(declare-fun it421 () Int)
(declare-fun it496 () Int)
(declare-fun it497 () Int)
(declare-fun it498 () Int)
(declare-fun it499 () Int)
(declare-fun it500 () Int)
(declare-fun it501 () Int)
(declare-fun it502 () Int)
(declare-fun it503 () Int)
(declare-fun it504 () Int)
(declare-fun it505 () Int)
(declare-fun it506 () Int)
(declare-fun it507 () Int)
(declare-fun it508 () Int)
(declare-fun it509 () Int)
(declare-fun it494 () Int)
(assert (= (+ i1 (- 1)) 0))
(assert (= (+ it176 (- 2)) 0))
(assert (= (+ (* i2 (- 1)) it177 (- 1)) 0))
(assert (= (+ (* i3 (- 1)) it178) 0))
(assert (= (+ (* i4 (- 1)) it179) 0))
(assert (= (+ (* i5 (- 1)) it180) 0))
(assert (= (+ (* i6 (- 1)) it181) 0))
(assert (= (+ it182 (* i7 (- 1))) 0))
(assert (and (<= (+ (* it181 (- 1)) (- 5)) 0)
     (<= (+ it181 (- 5)) 0)
     (= (+ it176 (- 2)) 0)
     (> it178 0)))
(assert (= (+ it415 (- 3)) 0))
(assert (= (+ (* it177 (- 1)) it416 (- 2)) 0))
(assert (= (+ it417 (* it178 (- 1))) 0))
(assert (= (+ it418 (* it178 (- 1))) 0))
(assert (= (+ (* it182 (- 1)) it419) 0))
(assert (= (+ it420 (* it181 (- 1))) 0))
(assert (= (+ (* it182 (- 1)) it421) 0))
(assert (let ((a!1 (< (+ (exp it418 2) (exp it420 5) (+ 0 (* it419 (- 1)))) (+ 0 0))))
  (and (= (+ it415 (- 3)) 0) a!1 (> it418 0))))
(assert (= (+ it496 (- 3)) 0))
(assert (= (+ it497 (* it416 (- 1)) (- 2)) 0))
(assert (= (+ (* it417 (- 1)) it498) 0))
(assert (= (+ it499 (* it418 2)) 0))
(assert (let ((a!1 (+ (+ 0 (+ it500 (* it419 (- 3)))) (* (exp it420 3) (+ 0 2)))))
  (= a!1 (+ 0 0))))
(assert (= (+ (* it420 (- 1)) it501) 0))
(assert (= (+ it502 (* it421 (- 1))) 0))
(assert (let ((a!1 (< (+ (exp it499 2) (exp it501 5) (+ 0 (* it500 (- 1)))) (+ 0 0))))
  (and (= (+ it496 (- 3)) 0) a!1 (< it499 0))))
(assert (= (+ it503 (- 3)) 0))
(assert (= (+ (* it497 (- 1)) it504 (- 2)) 0))
(assert (= (+ it505 (* it498 (- 1))) 0))
(assert (= (+ (* it499 2) it506) 0))
(assert (= (+ (* (exp it501 3) (+ 0 2)) (+ 0 (* it500 (- 3))) (+ 0 it507))
   (+ 0 0)))
(assert (= (+ (* it501 (- 1)) it508) 0))
(assert (= (+ (* it502 (- 1)) it509) 0))
(assert (let ((a!1 (> (+ (* (exp it506 2) (+ 0 (- 16)))
                 (* (exp it508 3) (+ 0 (- 8)))
                 (+ 0 (* it507 9))
                 (* (exp it508 5) (+ 0 (- 1))))
              (+ 0 0)))
      (a!2 (* (* (exp 81 (+ it494 (- 1))) (exp it508 3)) (+ 0 (- 1))))
      (a!3 (* (exp it506 2) (exp (exp 16 (+ it494 (- 1))) (+ 0 2))))
      (a!5 (* (* (exp 81 (+ it494 (- 1))) (exp it508 3)) (+ 0 (- 3))))
      (a!6 (* (* (exp 81 (+ it494 (- 1))) (+ 0 it507)) (+ 0 3)))
      (a!8 (* (* (exp 81 (+ it494 (- 1))) (exp it508 3)) (+ 0 (- 27))))
      (a!9 (* (* (exp 81 (+ it494 (- 1))) (+ 0 it507)) (+ 0 27)))
      (a!11 (* (* (exp 81 (+ it494 (- 1))) (exp it508 3)) (+ 0 (- 9))))
      (a!12 (* (* (exp 81 (+ it494 (- 1))) (+ 0 it507)) (+ 0 9)))
      (a!14 (> (+ (* (exp it506 2) (+ 0 (- 1)))
                  (+ 0 it507)
                  (* (exp it508 5) (+ 0 (- 1))))
               (+ 0 0)))
      (a!15 (> (+ (* (exp it506 2) (+ 0 (- 4)))
                  (* (exp it508 3) (+ 0 (- 2)))
                  (+ 0 (* it507 3))
                  (* (exp it508 5) (+ 0 (- 1))))
               (+ 0 0))))
(let ((a!4 (+ a!2
              (exp it508 3)
              (* a!3 (+ 0 (- 1)))
              (* (exp 81 (+ it494 (- 1))) (+ 0 it507))
              (* (exp it508 5) (+ 0 (- 1)))))
      (a!7 (> (+ a!5
                 (exp it508 3)
                 (* a!3 (+ 0 (- 4)))
                 a!6
                 (* (exp it508 5) (+ 0 (- 1))))
              (+ 0 0)))
      (a!10 (> (+ a!8
                  (exp it508 3)
                  (* a!3 (+ 0 (- 64)))
                  a!9
                  (* (exp it508 5) (+ 0 (- 1))))
               (+ 0 0)))
      (a!13 (> (+ a!11
                  (exp it508 3)
                  (* a!3 (+ 0 (- 16)))
                  a!12
                  (* (exp it508 5) (+ 0 (- 1))))
               (+ 0 0))))
  (and a!1
       (> it506 0)
       (> (* it506 2) 0)
       (> a!4 (+ 0 0))
       a!7
       a!10
       (>= (+ it503 (- 3)) 0)
       (> (* it506 4) 0)
       a!13
       (>= (+ it494 (- 1)) 0)
       a!14
       a!15
       (>= (+ (* it503 (- 1)) 3) 0)
       (> (* it506 8) 0)))))
(check-sat)
